c description: Perfect Matching Principle on 
c generator: CNFgen (0.9.0)
c copyright: (C) 2012-2020 Massimo Lauria <massimo.lauria@uniroma1.it>
c url: https://massimolauria.net/cnfgen
c
p cnf 40 117
-1 -2 0
1 2 0
-3 -4 0
3 4 0
-5 -6 0
-5 -7 0
-5 -8 0
-6 -7 0
-6 -8 0
-7 -8 0
5 6 7 8 0
-9 -10 0
-9 -11 0
-9 -12 0
-9 -13 0
-10 -11 0
-10 -12 0
-10 -13 0
-11 -12 0
-11 -13 0
-12 -13 0
9 10 11 12 13 0
14 0
15 0
0
-15 -16 0
15 16 0
0
0
-17 -18 0
-17 -19 0
-17 -20 0
-18 -19 0
-18 -20 0
-19 -20 0
17 18 19 20 0
-17 -21 0
-17 -22 0
-17 -23 0
-21 -22 0
-21 -23 0
-22 -23 0
17 21 22 23 0
24 0
-25 -26 0
25 26 0
0
-5 -27 0
5 27 0
-28 -29 0
28 29 0
18 0
0
-27 -30 0
-27 -31 0
-30 -31 0
27 30 31 0
-9 -21 0
-9 -32 0
-9 -33 0
-21 -32 0
-21 -33 0
-32 -33 0
9 21 32 33 0
22 0
-10 -34 0
10 34 0
-24 -34 0
-24 -35 0
-24 -36 0
-34 -35 0
-34 -36 0
-35 -36 0
24 34 35 36 0
16 0
25 0
-28 -30 0
-28 -37 0
-30 -37 0
28 30 37 0
1 0
-26 -38 0
26 38 0
-6 -11 0
6 11 0
0
-3 -12 0
3 12 0
-13 -14 0
13 14 0
-7 -35 0
-7 -38 0
-7 -39 0
-35 -38 0
-35 -39 0
-38 -39 0
7 35 38 39 0
-8 -23 0
-8 -36 0
-8 -37 0
-23 -36 0
-23 -37 0
-36 -37 0
8 23 36 37 0
-29 -40 0
29 40 0
-19 -39 0
19 39 0
-4 -20 0
-4 -32 0
-20 -32 0
4 20 32 0
-31 -33 0
-31 -40 0
-33 -40 0
31 33 40 0
2 0